329 450
196 288
446 218
309 245
163 398
267 327
123 455
304 87
284 446
127 450
227 144
100 98
369 98
309 344
19 102
363 348
404 59
137 351
130 446
96 293
196 215
472 320
23 276
259 307
75 386
109 302
382 210
252 251
308 413
447 179
367 162
27 272
222 16
123 204
314 71
349 11
139 321
183 162
97 294
469 172
180 78
326 414
140 430
165 448
196 465
127 63
127 7
187 201
375 310
405 190
234 106
53 225
427 88
387 377
382 356
401 414
286 80
328 427
10 493
227 58
310 207
122 438
214 309
491 89
472 249
131 58
355 184
283 135
124 170
12 6
378 265
420 16
345 248
295 208
94 23
266 404
230 240
194 296
402 186
237 226